
Gurobi 8.0.0 (mac64, Python) logging started Tue Jun  5 10:28:12 2018


Gurobi 8.0.0 (mac64, Python) logging started Tue Jun  5 10:46:47 2018


Gurobi 8.0.0 (mac64, Python) logging started Tue Jun  5 11:31:51 2018

